InboundTrucks  = 12;
OutboundTrucks = 8;
InboundDoors   = 2;
OutboundDoors  = 1;
ReleaseTime    = [30,19,29,26,10,23,14,33,29,1,24,15];
UnloadTime     = [8,8,5,6,4,4,10,3,8,9,6,7];
LoadTime       = [10,7,5,1,2,2,4,5];
TransferTime   = [| 0,5,0,2,0,0,0,0 | 0,2,0,2,0,0,0,1 | 0,1,0,1,0,0,0,3 | 1,0,3,0,0,0,0,3 | 0,3,0,0,4,4,1,0 | 0,5,0,2,0,0,0,0 | 0,0,3,0,3,3,1,0 | 4,0,3,0,0,0,0,2 | 3,0,4,0,0,0,0,4 | 0,0,0,0,3,3,2,0 | 0,0,0,0,2,4,3,0 | 3,1,1,0,0,0,0,5 |];
